NAME : CMT11Y.833910.tour
COMMENT : Cost = 0_833910
COMMENT : Found by LKH [Keld Helsgaun] Thu Sep 14 21:17:24 2017
TYPE : TOUR
DIMENSION : 124
TOUR_SECTION
1
22
27
24
21
18
17
20
26
23
25
28
34
31
32
29
33
36
35
37
30
50
48
60
66
62
63
65
67
64
61
57
59
56
54
55
58
53
124
82
118
114
84
3
2
4
5
6
7
8
10
11
12
16
15
14
13
9
110
109
119
19
115
122
106
107
108
68
70
71
72
75
73
76
79
81
80
78
77
74
69
41
44
46
49
52
51
47
45
42
43
40
39
38
123
121
120
83
112
87
86
113
85
91
92
90
93
94
97
95
98
116
111
99
117
101
104
105
100
102
103
96
88
89
-1
EOF
